

*************************************************************

   NEOS Server Version 6.0
   Job#     : 18284279
   Password : ULOPkYeX
   User     : 
   Solver   : milp:Gurobi:AMPL
   Start    : 2026-01-26 08:36:03
   End      : 2026-01-26 08:38:22
   Host     : prod-sub-1.neos-server.org

   Disclaimer:

   This information is provided without any express or
   implied warranty. In particular, there is no warranty
   of any kind concerning the fitness of this
   information for any particular purpose.

   Announcements:
*************************************************************
You are using the solver gurobi_ampl.
Checking ampl.mod for gurobi_options...
Checking ampl.com for gurobi_options...
Executing AMPL.
processing data.
processing commands.
Executing on prod-exec-5.neos-server.org
N = 450


"option presolve 0;" used, but "option presolve 10;" might work better.
450 variables, all binary
101025 constraints, all linear; 202050 nonzeros
	101025 inequality constraints
1 linear objective; 450 nonzeros.

Gurobi 12.0.3:   tech:threads = 4
  pre:solve = 2
  alg:iisfind = 1
Set parameter LogToConsole to value 1
  tech:outlev = 1

AMPL MP initial flat model has 450 variables (0 integer, 450 binary);
Objectives: 1 linear; 
Constraints:  101025 linear;

AMPL MP final model has 450 variables (0 integer, 450 binary);
Objectives: 1 linear; 
Constraints:  101025 linear;


Set parameter InfUnbdInfo to value 1
Gurobi Optimizer version 12.0.3 build v12.0.3rc0 (linux64 - "Rocky Linux 8.10 (Green Obsidian)")

CPU model: Intel(R) Xeon(R) CPU E5-2430 0 @ 2.20GHz, instruction set [SSE2|AVX]
Thread count: 12 physical cores, 24 logical processors, using up to 4 threads

Non-default parameters:
InfUnbdInfo  1
Presolve  2
Threads  4

Optimize a model with 101025 rows, 450 columns and 202050 nonzeros
Model fingerprint: 0x3b5f76de
Variable types: 0 continuous, 450 integer (0 binary)
Coefficient statistics:
  Matrix range     [1e+00, 1e+00]
  Objective range  [1e+00, 1e+00]
  Bounds range     [1e+00, 1e+00]
  RHS range        [1e+00, 2e+00]
Found heuristic solution: objective 21.0000000
Presolve removed 97457 rows and 0 columns
Presolve time: 0.10s
Presolved: 3568 rows, 450 columns, 15312 nonzeros
Variable types: 0 continuous, 450 integer (450 binary)
Performing another presolve...
Presolve removed 166 rows and 0 columns
Presolve time: 0.44s
Root relaxation presolved: 3402 rows, 450 columns, 21069 nonzeros


Root relaxation: objective 4.929400e+01, 3167 iterations, 1.36 seconds (1.19 work units)

    Nodes    |    Current Node    |     Objective Bounds      |     Work
 Expl Unexpl |  Obj  Depth IntInf | Incumbent    BestBd   Gap | It/Node Time

     0     0   49.29400    0  362   21.00000   49.29400   135%     -    2s
H    0     0                      22.0000000   49.29400   124%     -    2s
H    0     0                      23.0000000   49.29400   114%     -    2s
     0     0   31.42119    0  159   23.00000   31.42119  36.6%     -    3s
H    0     0                      24.0000000   31.42119  30.9%     -    3s
     0     0   30.64706    0  151   24.00000   30.64706  27.7%     -    3s
H    0     0                      25.0000000   30.64706  22.6%     -    3s
H    0     0                      26.0000000   30.64706  17.9%     -    3s
     0     0   30.64706    0  144   26.00000   30.64706  17.9%     -    3s
     0     0   30.44444    0  136   26.00000   30.44444  17.1%     -    3s
     0     0   30.42857    0  121   26.00000   30.42857  17.0%     -    3s
     0     0   30.41667    0  111   26.00000   30.41667  17.0%     -    3s
     0     0   30.41667    0  109   26.00000   30.41667  17.0%     -    3s
H    0     0                      27.0000000   30.00000  11.1%     -    3s
     0     0   30.00000    0  117   27.00000   30.00000  11.1%     -    3s
     0     0   30.00000    0  107   27.00000   30.00000  11.1%     -    3s
     0     0   30.00000    0  127   27.00000   30.00000  11.1%     -    4s
     0     0   30.00000    0  121   27.00000   30.00000  11.1%     -    4s
     0     0   30.00000    0  119   27.00000   30.00000  11.1%     -    4s
     0     0   30.00000    0  101   27.00000   30.00000  11.1%     -    4s
     0     0   30.00000    0  122   27.00000   30.00000  11.1%     -    4s
     0     0   30.00000    0  114   27.00000   30.00000  11.1%     -    4s
     0     0   30.00000    0  112   27.00000   30.00000  11.1%     -    4s
     0     0   30.00000    0  112   27.00000   30.00000  11.1%     -    5s
     0     2   30.00000    0  112   27.00000   30.00000  11.1%     -    6s
  1169   762   29.94444   19  105   27.00000   30.00000  11.1%  57.6   10s
  1493   877   28.90000   24  362   27.00000   30.00000  11.1%  57.4   15s
H 1509   843                      28.0000000   30.00000  7.14%  56.8   20s
  1926   880   29.18182   25   59   28.00000   30.00000  7.14%  70.7   25s
  3415   813   30.00000   22   78   28.00000   30.00000  7.14%  68.9   30s
  5060  1182   29.87500   26  100   28.00000   30.00000  7.14%  70.7   35s
  6681  1707   29.00000   30   62   28.00000   30.00000  7.14%  71.2   40s
  8945  2662   29.53846   31   90   28.00000   30.00000  7.14%  71.0   45s
 11259  3399   29.81818   30   91   28.00000   30.00000  7.14%  73.0   50s
 13305  4083   29.20000  108  106   28.00000   30.00000  7.14%  74.8   55s
 14965  4713   29.00000   22   60   28.00000   30.00000  7.14%  76.3   60s
 17221  5403     cutoff   21        28.00000   30.00000  7.14%  78.0   65s
 19498  6267   29.37647   28   53   28.00000   30.00000  7.14%  79.3   70s
*19502   391              31      29.0000000   30.00000  3.45%  79.3   70s
 19876   264   30.00000   88  362   29.00000   30.00000  3.45%  79.5   75s
 19895   277   30.00000   64  115   29.00000   30.00000  3.45%  79.4   80s
 20363   175   30.00000   36   67   29.00000   30.00000  3.45%  80.7   85s
 20803    48 infeasible   34        29.00000   30.00000  3.45%  81.2   90s
 21260    46   30.00000   35   73   29.00000   30.00000  3.45%  81.4   95s
 22771    49   30.00000   28   78   29.00000   30.00000  3.45%  82.7  100s
 23918    50   30.00000   30   89   29.00000   30.00000  3.45%  83.6  105s
 25376    94 infeasible   48        29.00000   30.00000  3.45%  85.2  110s
 26628   118 infeasible   47        29.00000   30.00000  3.45%  86.3  115s
 27461   100 infeasible   51        29.00000   30.00000  3.45%  87.2  120s
 28390    68 infeasible   41        29.00000   30.00000  3.45%  87.9  125s
*28462    68              43      30.0000000   30.00000  0.00%  87.9  125s

Cutting planes:
  Cover: 8
  Clique: 273
  MIR: 1
  Inf proof: 1
  Zero half: 11

Explored 28883 nodes (2562005 simplex iterations) in 125.72 seconds (134.94 work units)
Thread count was 4 (of 24 available processors)

Solution count 10: 30 29 28 ... 21

Optimal solution found (tolerance 1.00e-04)
Best objective 3.000000000000e+01, best bound 3.000000000000e+01, gap 0.0000%
Gurobi 12.0.3: optimal solution; objective 30
2.562e+06 simplex iterations
28883 branching nodes
clique_size = 30

Vertices in clique
==================
1
23
32
50
73
77
101
116
133
140
165
178
189
209
213
236
245
265
277
291
313
319
339
358
368
379
404
410
421
440

NEOS Server Home

